solution status: optimal solution found
objective value:                                  208
x$P0#2#9                                            1 	(obj:0)
x$P1#2#9                                            1 	(obj:0)
x$P2#1#12                                           1 	(obj:0)
x$P3#1#15                                           1 	(obj:0)
x$P4#5#9                                            1 	(obj:0)
x$P5#1#12                                           1 	(obj:0)
x$P6#5#9                                            1 	(obj:0)
x$P7#2#9                                            1 	(obj:0)
x$P8#1#12                                           1 	(obj:0)
x$P9#2#15                                           1 	(obj:0)
x$P10#1#12                                          1 	(obj:0)
x$P11#12#9                                          1 	(obj:0)
x$P12#1#9                                           1 	(obj:0)
x$P13#11#12                                         1 	(obj:0)
x$P14#9#15                                          1 	(obj:0)
x$P15#2#12                                          1 	(obj:0)
x$P16#1#9                                           1 	(obj:0)
x$P17#12#9                                          1 	(obj:0)
x$P18#9#9                                           1 	(obj:0)
x$P19#2#9                                           1 	(obj:0)
x$P20#1#18                                          1 	(obj:0)
x$P21#4#12                                          1 	(obj:0)
x$P22#3#15                                          1 	(obj:0)
x$P23#9#18                                          1 	(obj:0)
x$P24#1#15                                          1 	(obj:0)
x$P25#4#12                                          1 	(obj:0)
x$P26#4#12                                          1 	(obj:0)
x$P27#4#12                                          1 	(obj:0)
x$P28#4#12                                          1 	(obj:0)
x$P29#4#12                                          1 	(obj:0)
x$P30#4#12                                          1 	(obj:0)
x$P31#3#18                                          1 	(obj:0)
x$P32#2#15                                          1 	(obj:0)
x$P33#2#9                                           1 	(obj:0)
x$P34#1#9                                           1 	(obj:0)
x$P35#3#12                                          1 	(obj:0)
x$P36#2#15                                          1 	(obj:0)
x$P37#2#15                                          1 	(obj:0)
x$P38#9#12                                          1 	(obj:0)
x$P39#3#12                                          1 	(obj:0)
x$P40#2#12                                          1 	(obj:0)
x$P41#3#12                                          1 	(obj:0)
x$P42#2#9                                           1 	(obj:0)
x$P43#9#15                                          1 	(obj:0)
x$P44#4#9                                           1 	(obj:0)
x$P45#2#12                                          1 	(obj:0)
x$P46#1#9                                           1 	(obj:0)
x$P47#1#12                                          1 	(obj:0)
x$P48#2#12                                          1 	(obj:0)
x$P49#2#18                                          1 	(obj:0)
x$P50#1#15                                          1 	(obj:0)
x$P51#11#9                                          1 	(obj:0)
x$P52#1#15                                          1 	(obj:0)
x$P53#2#15                                          1 	(obj:0)
x$P54#3#18                                          1 	(obj:0)
x$P55#1#9                                           1 	(obj:0)
x$P56#4#12                                          1 	(obj:0)
x$P57#1#9                                           1 	(obj:0)
x$P58#1#15                                          1 	(obj:0)
x$P59#1#9                                           1 	(obj:0)
x$P60#2#12                                          1 	(obj:0)
x$P61#4#9                                           1 	(obj:0)
x$P62#2#18                                          1 	(obj:0)
x$P63#2#15                                          1 	(obj:0)
x$P64#4#9                                           1 	(obj:0)
x$P65#4#9                                           1 	(obj:0)
x$P66#2#18                                          1 	(obj:0)
x$P67#12#15                                         1 	(obj:0)
x$P68#4#9                                           1 	(obj:0)
x$P69#2#18                                          1 	(obj:0)
x$P70#1#12                                          1 	(obj:0)
x$P71#2#18                                          1 	(obj:0)
x$P72#1#9                                           1 	(obj:0)
x$P73#3#9                                           1 	(obj:0)
x$P74#3#12                                          1 	(obj:0)
x$P75#2#12                                          1 	(obj:0)
x$P76#1#9                                           1 	(obj:0)
x$P77#3#9                                           1 	(obj:0)
x$P78#3#9                                           1 	(obj:0)
x$P79#2#15                                          1 	(obj:0)
x$P80#4#15                                          1 	(obj:0)
x$P81#3#12                                          1 	(obj:0)
x$P82#3#9                                           1 	(obj:0)
x$P83#4#18                                          1 	(obj:0)
x$P84#3#9                                           1 	(obj:0)
x$P85#1#12                                          1 	(obj:0)
x$P86#9#12                                          1 	(obj:0)
x$P87#5#12                                          1 	(obj:0)
x$P88#1#15                                          1 	(obj:0)
x$P89#2#18                                          1 	(obj:0)
x$P90#3#15                                          1 	(obj:0)
x$P91#3#18                                          1 	(obj:0)
x$P92#1#18                                          1 	(obj:0)
x$P93#1#9                                           1 	(obj:0)
x$P94#11#12                                         1 	(obj:0)
x$P95#5#12                                          1 	(obj:0)
x$P96#10#9                                          1 	(obj:0)
x$P97#3#15                                          1 	(obj:0)
x$P98#10#9                                          1 	(obj:0)
x$P99#1#12                                          1 	(obj:0)
x$P100#2#12                                         1 	(obj:0)
x$P101#9#9                                          1 	(obj:0)
x$P102#4#12                                         1 	(obj:0)
x$P103#3#9                                          1 	(obj:0)
x$P104#4#15                                         1 	(obj:0)
x$P105#3#12                                         1 	(obj:0)
x$P106#5#15                                         1 	(obj:0)
x$P107#4#9                                          1 	(obj:0)
x$P108#5#9                                          1 	(obj:0)
x$P109#2#18                                         1 	(obj:0)
x$P110#1#15                                         1 	(obj:0)
x$P111#2#15                                         1 	(obj:0)
x$P112#5#9                                          1 	(obj:0)
x$P113#4#18                                         1 	(obj:0)
x$P114#9#9                                          1 	(obj:0)
x$P115#2#9                                          1 	(obj:0)
x$P116#3#15                                         1 	(obj:0)
x$P117#9#12                                         1 	(obj:0)
x$P118#5#12                                         1 	(obj:0)
x$P119#1#12                                         1 	(obj:0)
x$P120#4#12                                         1 	(obj:0)
x$P121#10#15                                        1 	(obj:0)
x$P122#1#9                                          1 	(obj:0)
x$P123#1#15                                         1 	(obj:0)
x$P124#2#12                                         1 	(obj:0)
x$P125#5#15                                         1 	(obj:0)
x$P126#1#9                                          1 	(obj:0)
x$P127#5#15                                         1 	(obj:0)
x$P128#3#9                                          1 	(obj:0)
x$P129#3#15                                         1 	(obj:0)
x$P130#2#12                                         1 	(obj:0)
x$P131#10#18                                        1 	(obj:0)
x$P132#9#12                                         1 	(obj:0)
x$P133#4#15                                         1 	(obj:0)
x$P134#1#12                                         1 	(obj:0)
x$P135#2#15                                         1 	(obj:0)
x$P136#3#18                                         1 	(obj:0)
x$P137#10#12                                        1 	(obj:0)
x$P138#9#9                                          1 	(obj:0)
x$P139#9#15                                         1 	(obj:0)
x$P140#5#15                                         1 	(obj:0)
x$P141#1#12                                         1 	(obj:0)
x$P142#2#18                                         1 	(obj:0)
x$P143#1#15                                         1 	(obj:0)
x$P144#2#12                                         1 	(obj:0)
x$P145#5#18                                         1 	(obj:0)
x$P146#4#15                                         1 	(obj:0)
x$P147#2#15                                         1 	(obj:0)
x$P148#9#9                                          1 	(obj:0)
x$P149#2#12                                         1 	(obj:0)
x$P150#2#18                                         1 	(obj:0)
x$P151#4#15                                         1 	(obj:0)
x$P152#2#9                                          1 	(obj:0)
x$P153#4#18                                         1 	(obj:0)
x$P154#3#15                                         1 	(obj:0)
x$P155#3#9                                          1 	(obj:0)
x$P156#1#12                                         1 	(obj:0)
x$P157#4#9                                          1 	(obj:0)
x$P158#3#9                                          1 	(obj:0)
x$P159#4#12                                         1 	(obj:0)
x$P160#5#15                                         1 	(obj:0)
x$P161#4#9                                          1 	(obj:0)
x$P162#4#18                                         1 	(obj:0)
x$P163#10#18                                        1 	(obj:0)
x$P164#5#12                                         1 	(obj:0)
x$P165#9#12                                         1 	(obj:0)
x$P166#10#15                                        1 	(obj:0)
x$P167#11#18                                        1 	(obj:0)
x$P168#4#18                                         1 	(obj:0)
x$P169#4#18                                         1 	(obj:0)
x$P170#3#15                                         1 	(obj:0)
x$P171#5#12                                         1 	(obj:0)
x$P172#1#9                                          1 	(obj:0)
x$P173#9#9                                          1 	(obj:0)
x$P174#9#9                                          1 	(obj:0)
x$P175#2#9                                          1 	(obj:0)
x$P176#1#9                                          1 	(obj:0)
x$P177#1#9                                          1 	(obj:0)
x$P178#5#15                                         1 	(obj:0)
x$P179#5#18                                         1 	(obj:0)
x$P180#5#18                                         1 	(obj:0)
x$P181#1#9                                          1 	(obj:0)
x$P182#1#12                                         1 	(obj:0)
x$P183#9#9                                          1 	(obj:0)
x$P184#1#9                                          1 	(obj:0)
x$P185#1#12                                         1 	(obj:0)
x$P186#3#18                                         1 	(obj:0)
x$P187#1#15                                         1 	(obj:0)
x$P188#1#12                                         1 	(obj:0)
x$P189#1#12                                         1 	(obj:0)
x$P190#1#9                                          1 	(obj:0)
x$P191#1#12                                         1 	(obj:0)
x$P192#2#15                                         1 	(obj:0)
x$P193#2#18                                         1 	(obj:0)
x$P194#1#18                                         1 	(obj:0)
x$P195#1#15                                         1 	(obj:0)
x$P196#4#18                                         1 	(obj:0)
x$P197#5#9                                          1 	(obj:0)
x$P198#4#9                                          1 	(obj:0)
x$P199#2#12                                         1 	(obj:0)
x$P200#4#15                                         1 	(obj:0)
x$P201#4#15                                         1 	(obj:0)
x$P202#1#12                                         1 	(obj:0)
x$P203#5#9                                          1 	(obj:0)
x$P204#2#18                                         1 	(obj:0)
x$P205#9#9                                          1 	(obj:0)
x$P206#10#12                                        1 	(obj:0)
x$P207#5#9                                          1 	(obj:0)
y$P0                                                1 	(obj:1)
y$P1                                                1 	(obj:1)
y$P2                                                1 	(obj:1)
y$P3                                                1 	(obj:1)
y$P4                                                1 	(obj:1)
y$P5                                                1 	(obj:1)
y$P6                                                1 	(obj:1)
y$P7                                                1 	(obj:1)
y$P8                                                1 	(obj:1)
y$P9                                                1 	(obj:1)
y$P10                                               1 	(obj:1)
y$P11                                               1 	(obj:1)
y$P12                                               1 	(obj:1)
y$P13                                               1 	(obj:1)
y$P14                                               1 	(obj:1)
y$P15                                               1 	(obj:1)
y$P16                                               1 	(obj:1)
y$P17                                               1 	(obj:1)
y$P18                                               1 	(obj:1)
y$P19                                               1 	(obj:1)
y$P20                                               1 	(obj:1)
y$P21                                               1 	(obj:1)
y$P22                                               1 	(obj:1)
y$P23                                               1 	(obj:1)
y$P24                                               1 	(obj:1)
y$P25                                               1 	(obj:1)
y$P26                                               1 	(obj:1)
y$P27                                               1 	(obj:1)
y$P28                                               1 	(obj:1)
y$P29                                               1 	(obj:1)
y$P30                                               1 	(obj:1)
y$P31                                               1 	(obj:1)
y$P32                                               1 	(obj:1)
y$P33                                               1 	(obj:1)
y$P34                                               1 	(obj:1)
y$P35                                               1 	(obj:1)
y$P36                                               1 	(obj:1)
y$P37                                               1 	(obj:1)
y$P38                                               1 	(obj:1)
y$P39                                               1 	(obj:1)
y$P40                                               1 	(obj:1)
y$P41                                               1 	(obj:1)
y$P42                                               1 	(obj:1)
y$P43                                               1 	(obj:1)
y$P44                                               1 	(obj:1)
y$P45                                               1 	(obj:1)
y$P46                                               1 	(obj:1)
y$P47                                               1 	(obj:1)
y$P48                                               1 	(obj:1)
y$P49                                               1 	(obj:1)
y$P50                                               1 	(obj:1)
y$P51                                               1 	(obj:1)
y$P52                                               1 	(obj:1)
y$P53                                               1 	(obj:1)
y$P54                                               1 	(obj:1)
y$P55                                               1 	(obj:1)
y$P56                                               1 	(obj:1)
y$P57                                               1 	(obj:1)
y$P58                                               1 	(obj:1)
y$P59                                               1 	(obj:1)
y$P60                                               1 	(obj:1)
y$P61                                               1 	(obj:1)
y$P62                                               1 	(obj:1)
y$P63                                               1 	(obj:1)
y$P64                                               1 	(obj:1)
y$P65                                               1 	(obj:1)
y$P66                                               1 	(obj:1)
y$P67                                               1 	(obj:1)
y$P68                                               1 	(obj:1)
y$P69                                               1 	(obj:1)
y$P70                                               1 	(obj:1)
y$P71                                               1 	(obj:1)
y$P72                                               1 	(obj:1)
y$P73                                               1 	(obj:1)
y$P74                                               1 	(obj:1)
y$P75                                               1 	(obj:1)
y$P76                                               1 	(obj:1)
y$P77                                               1 	(obj:1)
y$P78                                               1 	(obj:1)
y$P79                                               1 	(obj:1)
y$P80                                               1 	(obj:1)
y$P81                                               1 	(obj:1)
y$P82                                               1 	(obj:1)
y$P83                                               1 	(obj:1)
y$P84                                               1 	(obj:1)
y$P85                                               1 	(obj:1)
y$P86                                               1 	(obj:1)
y$P87                                               1 	(obj:1)
y$P88                                               1 	(obj:1)
y$P89                                               1 	(obj:1)
y$P90                                               1 	(obj:1)
y$P91                                               1 	(obj:1)
y$P92                                               1 	(obj:1)
y$P93                                               1 	(obj:1)
y$P94                                               1 	(obj:1)
y$P95                                               1 	(obj:1)
y$P96                                               1 	(obj:1)
y$P97                                               1 	(obj:1)
y$P98                                               1 	(obj:1)
y$P99                                               1 	(obj:1)
y$P100                                              1 	(obj:1)
y$P101                                              1 	(obj:1)
y$P102                                              1 	(obj:1)
y$P103                                              1 	(obj:1)
y$P104                                              1 	(obj:1)
y$P105                                              1 	(obj:1)
y$P106                                              1 	(obj:1)
y$P107                                              1 	(obj:1)
y$P108                                              1 	(obj:1)
y$P109                                              1 	(obj:1)
y$P110                                              1 	(obj:1)
y$P111                                              1 	(obj:1)
y$P112                                              1 	(obj:1)
y$P113                                              1 	(obj:1)
y$P114                                              1 	(obj:1)
y$P115                                              1 	(obj:1)
y$P116                                              1 	(obj:1)
y$P117                                              1 	(obj:1)
y$P118                                              1 	(obj:1)
y$P119                                              1 	(obj:1)
y$P120                                              1 	(obj:1)
y$P121                                              1 	(obj:1)
y$P122                                              1 	(obj:1)
y$P123                                              1 	(obj:1)
y$P124                                              1 	(obj:1)
y$P125                                              1 	(obj:1)
y$P126                                              1 	(obj:1)
y$P127                                              1 	(obj:1)
y$P128                                              1 	(obj:1)
y$P129                                              1 	(obj:1)
y$P130                                              1 	(obj:1)
y$P131                                              1 	(obj:1)
y$P132                                              1 	(obj:1)
y$P133                                              1 	(obj:1)
y$P134                                              1 	(obj:1)
y$P135                                              1 	(obj:1)
y$P136                                              1 	(obj:1)
y$P137                                              1 	(obj:1)
y$P138                                              1 	(obj:1)
y$P139                                              1 	(obj:1)
y$P140                                              1 	(obj:1)
y$P141                                              1 	(obj:1)
y$P142                                              1 	(obj:1)
y$P143                                              1 	(obj:1)
y$P144                                              1 	(obj:1)
y$P145                                              1 	(obj:1)
y$P146                                              1 	(obj:1)
y$P147                                              1 	(obj:1)
y$P148                                              1 	(obj:1)
y$P149                                              1 	(obj:1)
y$P150                                              1 	(obj:1)
y$P151                                              1 	(obj:1)
y$P152                                              1 	(obj:1)
y$P153                                              1 	(obj:1)
y$P154                                              1 	(obj:1)
y$P155                                              1 	(obj:1)
y$P156                                              1 	(obj:1)
y$P157                                              1 	(obj:1)
y$P158                                              1 	(obj:1)
y$P159                                              1 	(obj:1)
y$P160                                              1 	(obj:1)
y$P161                                              1 	(obj:1)
y$P162                                              1 	(obj:1)
y$P163                                              1 	(obj:1)
y$P164                                              1 	(obj:1)
y$P165                                              1 	(obj:1)
y$P166                                              1 	(obj:1)
y$P167                                              1 	(obj:1)
y$P168                                              1 	(obj:1)
y$P169                                              1 	(obj:1)
y$P170                                              1 	(obj:1)
y$P171                                              1 	(obj:1)
y$P172                                              1 	(obj:1)
y$P173                                              1 	(obj:1)
y$P174                                              1 	(obj:1)
y$P175                                              1 	(obj:1)
y$P176                                              1 	(obj:1)
y$P177                                              1 	(obj:1)
y$P178                                              1 	(obj:1)
y$P179                                              1 	(obj:1)
y$P180                                              1 	(obj:1)
y$P181                                              1 	(obj:1)
y$P182                                              1 	(obj:1)
y$P183                                              1 	(obj:1)
y$P184                                              1 	(obj:1)
y$P185                                              1 	(obj:1)
y$P186                                              1 	(obj:1)
y$P187                                              1 	(obj:1)
y$P188                                              1 	(obj:1)
y$P189                                              1 	(obj:1)
y$P190                                              1 	(obj:1)
y$P191                                              1 	(obj:1)
y$P192                                              1 	(obj:1)
y$P193                                              1 	(obj:1)
y$P194                                              1 	(obj:1)
y$P195                                              1 	(obj:1)
y$P196                                              1 	(obj:1)
y$P197                                              1 	(obj:1)
y$P198                                              1 	(obj:1)
y$P199                                              1 	(obj:1)
y$P200                                              1 	(obj:1)
y$P201                                              1 	(obj:1)
y$P202                                              1 	(obj:1)
y$P203                                              1 	(obj:1)
y$P204                                              1 	(obj:1)
y$P205                                              1 	(obj:1)
y$P206                                              1 	(obj:1)
y$P207                                              1 	(obj:1)
